NAME          DCAP_2_4_3_300_SS241
ROWS
 N  OBJ
 L  CON1
 L  CON2
 L  CON3
 L  CON4
 L  CON5
 L  CON6
 L  CON7
 L  CON8
 L  CON9
 L  CON10
 L  CON11
 L  CON12
 E  CON13
 E  CON14
 E  CON15
 E  CON16
 E  CON17
 E  CON18
 E  CON19
 E  CON20
 E  CON21
 E  CON22
 E  CON23
 E  CON24
COLUMNS
    x[1,1]    OBJ       6.180167      CON1      1.000000    
    x[1,1]    CON7      -1.000000     CON8      -1.000000   
    x[1,1]    CON9      -1.000000   
    x[1,2]    OBJ       6.563535      CON2      1.000000    
    x[1,2]    CON8      -1.000000     CON9      -1.000000   
    x[1,3]    OBJ       7.443064      CON3      1.000000    
    x[1,3]    CON9      -1.000000   
    x[2,1]    OBJ       6.732585      CON4      1.000000    
    x[2,1]    CON10     -1.000000     CON11     -1.000000   
    x[2,1]    CON12     -1.000000   
    x[2,2]    OBJ       5.039546      CON5      1.000000    
    x[2,2]    CON11     -1.000000     CON12     -1.000000   
    x[2,3]    OBJ       6.054841      CON6      1.000000    
    x[2,3]    CON12     -1.000000   
    MARKER    'MARKER'                'INTORG'
    u[1,1]    OBJ       48.076654     CON1      -1.000000   
    u[1,2]    OBJ       20.066487     CON2      -1.000000   
    u[1,3]    OBJ       32.230043     CON3      -1.000000   
    u[2,1]    OBJ       49.996186     CON4      -1.000000   
    u[2,2]    OBJ       49.466655     CON5      -1.000000   
    u[2,3]    OBJ       27.484319     CON6      -1.000000   
    y[1,1,1]  OBJ       9.277636      CON7      1.235124    
    y[1,1,1]  CON13     1.000000    
    y[1,1,2]  OBJ       9.243023      CON8      1.046215    
    y[1,1,2]  CON14     1.000000    
    y[1,1,3]  OBJ       8.348097      CON9      1.480472    
    y[1,1,3]  CON15     1.000000    
    y[1,2,1]  OBJ       9.509191      CON7      1.075854    
    y[1,2,1]  CON16     1.000000    
    y[1,2,2]  OBJ       9.428388      CON8      0.954872    
    y[1,2,2]  CON17     1.000000    
    y[1,2,3]  OBJ       8.045796      CON9      0.669708    
    y[1,2,3]  CON18     1.000000    
    y[1,3,1]  OBJ       7.478250      CON7      1.034415    
    y[1,3,1]  CON19     1.000000    
    y[1,3,2]  OBJ       5.160717      CON8      1.402606    
    y[1,3,2]  CON20     1.000000    
    y[1,3,3]  OBJ       9.926003      CON9      1.131113    
    y[1,3,3]  CON21     1.000000    
    y[1,4,1]  OBJ       7.892860      CON7      1.423638    
    y[1,4,1]  CON22     1.000000    
    y[1,4,2]  OBJ       6.625349      CON8      0.616829    
    y[1,4,2]  CON23     1.000000    
    y[1,4,3]  OBJ       6.292489      CON9      1.366317    
    y[1,4,3]  CON24     1.000000    
    y[2,1,1]  OBJ       7.871773      CON10     1.235124    
    y[2,1,1]  CON13     1.000000    
    y[2,1,2]  OBJ       9.293262      CON11     1.046215    
    y[2,1,2]  CON14     1.000000    
    y[2,1,3]  OBJ       5.565248      CON12     1.480472    
    y[2,1,3]  CON15     1.000000    
    y[2,2,1]  OBJ       5.114850      CON10     1.075854    
    y[2,2,1]  CON16     1.000000    
    y[2,2,2]  OBJ       6.221823      CON11     0.954872    
    y[2,2,2]  CON17     1.000000    
    y[2,2,3]  OBJ       9.787678      CON12     0.669708    
    y[2,2,3]  CON18     1.000000    
    y[2,3,1]  OBJ       6.322180      CON10     1.034415    
    y[2,3,1]  CON19     1.000000    
    y[2,3,2]  OBJ       9.497735      CON11     1.402606    
    y[2,3,2]  CON20     1.000000    
    y[2,3,3]  OBJ       6.296346      CON12     1.131113    
    y[2,3,3]  CON21     1.000000    
    y[2,4,1]  OBJ       7.372001      CON10     1.423638    
    y[2,4,1]  CON22     1.000000    
    y[2,4,2]  OBJ       6.424031      CON11     0.616829    
    y[2,4,2]  CON23     1.000000    
    y[2,4,3]  OBJ       5.696981      CON12     1.366317    
    y[2,4,3]  CON24     1.000000    
    z[1,1]    OBJ       657.943577    CON13     1.000000    
    z[1,2]    OBJ       752.641213    CON14     1.000000    
    z[1,3]    OBJ       933.619873    CON15     1.000000    
    z[2,1]    OBJ       689.080017    CON16     1.000000    
    z[2,2]    OBJ       573.997285    CON17     1.000000    
    z[2,3]    OBJ       964.015075    CON18     1.000000    
    z[3,1]    OBJ       905.542549    CON19     1.000000    
    z[3,2]    OBJ       589.879777    CON20     1.000000    
    z[3,3]    OBJ       574.446726    CON21     1.000000    
    z[4,1]    OBJ       673.711210    CON22     1.000000    
    z[4,2]    OBJ       867.936172    CON23     1.000000    
    z[4,3]    OBJ       784.216028    CON24     1.000000    
    MARKER    'MARKER'                 'INTEND'
RHS
    RHS       CON1      -0.000000     CON2      -0.000000   
    RHS       CON3      -0.000000     CON4      -0.000000   
    RHS       CON5      -0.000000     CON6      -0.000000   
    RHS       CON7      -0.000000     CON8      -0.000000   
    RHS       CON9      -0.000000     CON10     -0.000000   
    RHS       CON11     -0.000000     CON12     -0.000000   
    RHS       CON13     1.000000      CON14     1.000000    
    RHS       CON15     1.000000      CON16     1.000000    
    RHS       CON17     1.000000      CON18     1.000000    
    RHS       CON19     1.000000      CON20     1.000000    
    RHS       CON21     1.000000      CON22     1.000000    
    RHS       CON23     1.000000      CON24     1.000000    
BOUNDS
 BV BOUND     u[1,1]  
 BV BOUND     u[1,2]  
 BV BOUND     u[1,3]  
 BV BOUND     u[2,1]  
 BV BOUND     u[2,2]  
 BV BOUND     u[2,3]  
 BV BOUND     y[1,1,1]
 BV BOUND     y[1,1,2]
 BV BOUND     y[1,1,3]
 BV BOUND     y[1,2,1]
 BV BOUND     y[1,2,2]
 BV BOUND     y[1,2,3]
 BV BOUND     y[1,3,1]
 BV BOUND     y[1,3,2]
 BV BOUND     y[1,3,3]
 BV BOUND     y[1,4,1]
 BV BOUND     y[1,4,2]
 BV BOUND     y[1,4,3]
 BV BOUND     y[2,1,1]
 BV BOUND     y[2,1,2]
 BV BOUND     y[2,1,3]
 BV BOUND     y[2,2,1]
 BV BOUND     y[2,2,2]
 BV BOUND     y[2,2,3]
 BV BOUND     y[2,3,1]
 BV BOUND     y[2,3,2]
 BV BOUND     y[2,3,3]
 BV BOUND     y[2,4,1]
 BV BOUND     y[2,4,2]
 BV BOUND     y[2,4,3]
 BV BOUND     z[1,1]  
 BV BOUND     z[1,2]  
 BV BOUND     z[1,3]  
 BV BOUND     z[2,1]  
 BV BOUND     z[2,2]  
 BV BOUND     z[2,3]  
 BV BOUND     z[3,1]  
 BV BOUND     z[3,2]  
 BV BOUND     z[3,3]  
 BV BOUND     z[4,1]  
 BV BOUND     z[4,2]  
 BV BOUND     z[4,3]  
ENDATA
